num_personas = 20;
num_opiniones = 5;
distribucion_inicial = [12,4,0,4,0];
valores_extremismo = [0.4,0.25,0.5,1,0.15];
costos_extra = [1,2,1,1,3];
matriz_costos = [
  [0,2,4,5,7],
  [1,0,3,4,6],
  [3,2,0,2,4],
  [4,2,1,0,2],
  [8,5,3,2,0]
];
costo_maximo = 22;
movimientos_maximos = 18;